10
0, 317, 264, 571, 1138, 952, 735, 1185, 647, 798
317, 0, 448, 395, 872, 929, 431, 944, 619, 812
264, 448, 0, 489, 1085, 718, 874, 1099, 436, 554
571, 395, 489, 0, 596, 580, 616, 620, 314, 510
1138, 872, 1085, 596, 0, 863, 760, 148, 790, 914
952, 929, 718, 580, 863, 0, 1193, 777, 314, 172
735, 431, 874, 616, 760, 1193, 0, 885, 923, 1123
1185, 944, 1099, 620, 148, 777, 885, 0, 756, 851
647, 619, 436, 314, 790, 314, 923, 756, 0, 200
798, 812, 554, 510, 914, 172, 1123, 851, 200, 0
